#pLT is two-dimensional [i,r]=[component, individual]
#[i,*] means all data in row i.

param pLT := 
[1,*]
1  0    2  8    3  7    4  6    5  7    6  7    7  8    8  6    9  7    10 7    
11 6    12 6    

[2,*]
1  2    2  4    3  3    4  4    5  4    6  4    7  3    8  4    9  4    10 3    
11 3    12 4    

[3,*]
1  1    2  3    3  3    4  3    5  3    6  2    7  3    8  3    9  2    10 2    
11 3    12 2    

[4,*]
1  1    2  2    3  3    4  3    5  2    6  3    7  3    8  2    9  2    10 2    
11 2    12 2    

[5,*]
1  1    2  2    3  2    4  1    5  2    6  2    7  1    8  1    9  1    10 1    
11 1    12 2    

[6,*]
1  2    2  5    3  4    4  5    5  5    6  3    7  4    8  4    9  4    10 3    
11 4    12 4    

[7,*]
1  5    2  5    3  6    4  6    5  5    6  5    7  6    8  6    9  5    10 6    
11 5    12 6    

[8,*]
1  1    2  2    3  2    4  1    5  1    6  1    7  1    8  1    9  1    10 1    
11 1    12 1    

[9,*]
1  1    2  2    3  1    4  1    5  1    6  1    7  1    8  2    9  1    10 1    
11 1    12 1    

[10,*]
1  1    2  1    3  1    4  1    5  1    6  1    7  1    8  1    9  1    10 1    
11 1    12 1    
;